\* MinimizeFlowDiscrepancy *\
Minimize
OBJ: __dummy
Subject To
FlowConservation_0: - flow_0_1 - flow_0_2 = 0
FlowConservation_1: flow_0_1 - flow_1_3 = 0
FlowConservation_10: - flow_10_14 + flow_9_10 = 0
FlowConservation_100: - flow_100_101 + flow_98_100 = 0
FlowConservation_101: flow_100_101 - flow_101_102 - flow_101_103 + flow_97_101
 + flow_99_101 = 0
FlowConservation_102: flow_101_102 - flow_102_107 = 0
FlowConservation_103: flow_101_103 - flow_103_104 - flow_103_105 = 0
FlowConservation_104: flow_103_104 - flow_104_106 = 0
FlowConservation_105: flow_103_105 - flow_105_106 = 0
FlowConservation_106: flow_104_106 + flow_105_106 - flow_106_107 = 0
FlowConservation_107: flow_102_107 + flow_106_107 - flow_107_108
 - flow_107_109 = 0
FlowConservation_108: flow_107_108 - flow_108_110 - flow_108_111 = 0
FlowConservation_109: flow_107_109 - flow_109_111 = 0
FlowConservation_11: - flow_11_12 - flow_11_13 + flow_9_11 = 0
FlowConservation_110: flow_108_110 - flow_110_112 - flow_110_113 + flow_95_110
 = 0
FlowConservation_111: flow_108_111 + flow_109_111 - flow_111_114
 - flow_111_115 = 0
FlowConservation_112: flow_110_112 - flow_112_126 = 0
FlowConservation_113: flow_110_113 - flow_113_119 = 0
FlowConservation_114: flow_111_114 - flow_114_116 = 0
FlowConservation_115: flow_111_115 - flow_115_116 = 0
FlowConservation_116: flow_114_116 + flow_115_116 - flow_116_117
 - flow_116_118 = 0
FlowConservation_117: flow_116_117 - flow_117_119 = 0
FlowConservation_118: flow_116_118 - flow_118_120 - flow_118_121 = 0
FlowConservation_119: flow_113_119 + flow_117_119 - flow_119_125 = 0
FlowConservation_12: flow_11_12 - flow_12_14 = 0
FlowConservation_120: flow_118_120 - flow_120_122 = 0
FlowConservation_121: flow_118_121 - flow_121_122 = 0
FlowConservation_122: flow_120_122 + flow_121_122 - flow_122_123
 - flow_122_124 = 0
FlowConservation_123: flow_122_123 - flow_123_127 = 0
FlowConservation_124: flow_122_124 - flow_124_125 = 0
FlowConservation_125: flow_119_125 + flow_124_125 - flow_125_126 = 0
FlowConservation_126: flow_112_126 + flow_125_126 - flow_126_127 = 0
FlowConservation_127: flow_123_127 + flow_126_127 - flow_127_128
 - flow_127_129 = 0
FlowConservation_128: flow_127_128 - flow_128_134 = 0
FlowConservation_129: flow_127_129 - flow_129_130 - flow_129_131 = 0
FlowConservation_13: flow_11_13 - flow_13_14 = 0
FlowConservation_130: flow_129_130 - flow_130_135 = 0
FlowConservation_131: flow_129_131 - flow_131_132 - flow_131_133 = 0
FlowConservation_132: flow_131_132 - flow_132_134 = 0
FlowConservation_133: flow_131_133 - flow_133_135 = 0
FlowConservation_134: flow_128_134 + flow_132_134 - flow_134_155 = 0
FlowConservation_135: flow_130_135 + flow_133_135 - flow_135_136
 - flow_135_137 = 0
FlowConservation_136: flow_135_136 - flow_136_140 = 0
FlowConservation_137: flow_135_137 - flow_137_138 - flow_137_139 = 0
FlowConservation_138: flow_137_138 - flow_138_140 = 0
FlowConservation_139: flow_137_139 - flow_139_140 = 0
FlowConservation_14: flow_10_14 + flow_12_14 + flow_13_14 - flow_14_15
 - flow_14_16 = 0
FlowConservation_140: flow_136_140 + flow_138_140 + flow_139_140
 - flow_140_141 - flow_140_142 = 0
FlowConservation_141: flow_140_141 - flow_141_143 = 0
FlowConservation_142: flow_140_142 - flow_142_143 = 0
FlowConservation_143: flow_141_143 + flow_142_143 - flow_143_144
 - flow_143_145 = 0
FlowConservation_144: flow_143_144 - flow_144_146 = 0
FlowConservation_145: flow_143_145 - flow_145_146 = 0
FlowConservation_146: flow_144_146 + flow_145_146 - flow_146_147
 - flow_146_148 = 0
FlowConservation_147: flow_146_147 - flow_147_149 = 0
FlowConservation_148: flow_146_148 - flow_148_149 = 0
FlowConservation_149: flow_147_149 + flow_148_149 - flow_149_150
 - flow_149_151 = 0
FlowConservation_15: flow_14_15 - flow_15_21 = 0
FlowConservation_150: flow_149_150 - flow_150_152 = 0
FlowConservation_151: flow_149_151 - flow_151_152 = 0
FlowConservation_152: flow_150_152 + flow_151_152 - flow_152_153
 - flow_152_154 = 0
FlowConservation_153: flow_152_153 - flow_153_155 - flow_153_156 = 0
FlowConservation_154: flow_152_154 - flow_154_156 = 0
FlowConservation_155: flow_134_155 + flow_153_155 - flow_155_157
 - flow_155_158 = 0
FlowConservation_156: flow_153_156 + flow_154_156 - flow_156_159
 - flow_156_160 = 0
FlowConservation_157: flow_155_157 - flow_157_161 = 0
FlowConservation_158: flow_155_158 - flow_158_161 = 0
FlowConservation_159: flow_156_159 - flow_159_187 = 0
FlowConservation_16: flow_14_16 - flow_16_17 - flow_16_18 = 0
FlowConservation_160: flow_156_160 - flow_160_161 = 0
FlowConservation_161: flow_157_161 + flow_158_161 + flow_160_161
 - flow_161_162 - flow_161_163 = 0
FlowConservation_162: flow_161_162 - flow_162_164 = 0
FlowConservation_163: flow_161_163 - flow_163_164 = 0
FlowConservation_164: flow_162_164 + flow_163_164 - flow_164_165
 - flow_164_166 = 0
FlowConservation_165: flow_164_165 - flow_165_167 = 0
FlowConservation_166: flow_164_166 - flow_166_167 = 0
FlowConservation_167: flow_165_167 + flow_166_167 - flow_167_168
 - flow_167_169 = 0
FlowConservation_168: flow_167_168 - flow_168_170 = 0
FlowConservation_169: flow_167_169 - flow_169_170 = 0
FlowConservation_17: flow_16_17 - flow_17_19 - flow_17_20 = 0
FlowConservation_170: flow_168_170 + flow_169_170 - flow_170_171
 - flow_170_172 = 0
FlowConservation_171: flow_170_171 - flow_171_173 = 0
FlowConservation_172: flow_170_172 - flow_172_173 = 0
FlowConservation_173: flow_171_173 + flow_172_173 - flow_173_174
 - flow_173_175 = 0
FlowConservation_174: flow_173_174 - flow_174_176 = 0
FlowConservation_175: flow_173_175 - flow_175_176 = 0
FlowConservation_176: flow_174_176 + flow_175_176 - flow_176_177
 - flow_176_178 = 0
FlowConservation_177: flow_176_177 - flow_177_179 = 0
FlowConservation_178: flow_176_178 - flow_178_179 = 0
FlowConservation_179: flow_177_179 + flow_178_179 - flow_179_180
 - flow_179_181 = 0
FlowConservation_18: flow_16_18 - flow_18_21 = 0
FlowConservation_180: flow_179_180 - flow_180_182 = 0
FlowConservation_181: flow_179_181 - flow_181_182 = 0
FlowConservation_182: flow_180_182 + flow_181_182 - flow_182_183
 - flow_182_184 = 0
FlowConservation_183: flow_182_183 - flow_183_185 = 0
FlowConservation_184: flow_182_184 - flow_184_185 = 0
FlowConservation_185: flow_183_185 + flow_184_185 - flow_185_186
 - flow_185_187 = 0
FlowConservation_186: flow_185_186 - flow_186_190 = 0
FlowConservation_187: flow_159_187 + flow_185_187 - flow_187_188
 - flow_187_189 = 0
FlowConservation_188: flow_187_188 - flow_188_199 = 0
FlowConservation_189: flow_187_189 - flow_189_190 = 0
FlowConservation_19: flow_17_19 - flow_19_25 = 0
FlowConservation_190: flow_186_190 + flow_189_190 - flow_190_191
 - flow_190_192 = 0
FlowConservation_191: flow_190_191 - flow_191_196 = 0
FlowConservation_192: flow_190_192 - flow_192_193 - flow_192_194 = 0
FlowConservation_193: flow_192_193 - flow_193_195 = 0
FlowConservation_194: flow_192_194 - flow_194_195 = 0
FlowConservation_195: flow_193_195 + flow_194_195 - flow_195_196 = 0
FlowConservation_196: flow_191_196 + flow_195_196 - flow_196_197
 - flow_196_198 = 0
FlowConservation_197: flow_196_197 - flow_197_200 = 0
FlowConservation_198: flow_196_198 - flow_198_199 = 0
FlowConservation_199: flow_188_199 + flow_198_199 - flow_199_200 = 0
FlowConservation_2: flow_0_2 - flow_2_3 = 0
FlowConservation_20: flow_17_20 - flow_20_25 = 0
FlowConservation_200: flow_197_200 + flow_199_200 - flow_200_201
 - flow_200_202 = 0
FlowConservation_201: flow_200_201 - flow_201_205 = 0
FlowConservation_202: flow_200_202 - flow_202_203 - flow_202_204 = 0
FlowConservation_203: flow_202_203 - flow_203_205 = 0
FlowConservation_204: flow_202_204 - flow_204_205 = 0
FlowConservation_205: flow_201_205 + flow_203_205 + flow_204_205
 - flow_205_206 - flow_205_207 = 0
FlowConservation_206: flow_205_206 - flow_206_208 = 0
FlowConservation_207: flow_205_207 - flow_207_208 = 0
FlowConservation_208: flow_206_208 + flow_207_208 - flow_208_209
 - flow_208_210 = 0
FlowConservation_209: flow_208_209 - flow_209_211 = 0
FlowConservation_21: flow_15_21 + flow_18_21 - flow_21_22 - flow_21_23 = 0
FlowConservation_210: flow_208_210 - flow_210_211 = 0
FlowConservation_211: flow_209_211 + flow_210_211 - flow_211_212
 - flow_211_213 = 0
FlowConservation_212: flow_211_212 - flow_212_214 = 0
FlowConservation_213: flow_211_213 - flow_213_214 = 0
FlowConservation_214: flow_212_214 + flow_213_214 - flow_214_215
 - flow_214_216 = 0
FlowConservation_215: flow_214_215 - flow_215_220 = 0
FlowConservation_216: flow_214_216 - flow_216_217 - flow_216_218 = 0
FlowConservation_217: flow_216_217 - flow_217_219 = 0
FlowConservation_218: flow_216_218 - flow_218_219 = 0
FlowConservation_219: flow_217_219 + flow_218_219 - flow_219_220 = 0
FlowConservation_22: flow_21_22 - flow_22_24 = 0
FlowConservation_220: flow_215_220 + flow_219_220 - flow_220_221
 - flow_220_222 = 0
FlowConservation_221: flow_220_221 - flow_221_223 = 0
FlowConservation_222: flow_220_222 - flow_222_223 = 0
FlowConservation_223: flow_221_223 + flow_222_223 - flow_223_224
 - flow_223_225 = 0
FlowConservation_224: flow_223_224 - flow_224_226 = 0
FlowConservation_225: flow_223_225 - flow_225_226 = 0
FlowConservation_226: flow_224_226 + flow_225_226 - flow_226_227
 - flow_226_228 = 0
FlowConservation_227: flow_226_227 - flow_227_229 = 0
FlowConservation_228: flow_226_228 - flow_228_229 = 0
FlowConservation_229: flow_227_229 + flow_228_229 - flow_229_230
 - flow_229_231 = 0
FlowConservation_23: flow_21_23 - flow_23_24 = 0
FlowConservation_230: flow_229_230 - flow_230_232 = 0
FlowConservation_231: flow_229_231 - flow_231_232 = 0
FlowConservation_232: flow_230_232 + flow_231_232 - flow_232_233
 - flow_232_234 = 0
FlowConservation_233: flow_232_233 - flow_233_238 = 0
FlowConservation_234: flow_232_234 - flow_234_235 - flow_234_236 = 0
FlowConservation_235: flow_234_235 - flow_235_237 = 0
FlowConservation_236: flow_234_236 - flow_236_237 = 0
FlowConservation_237: flow_235_237 + flow_236_237 - flow_237_238 = 0
FlowConservation_238: flow_233_238 + flow_237_238 - flow_238_239
 - flow_238_240 = 0
FlowConservation_239: flow_238_239 - flow_239_241 = 0
FlowConservation_24: flow_22_24 + flow_23_24 - flow_24_25 = 0
FlowConservation_240: flow_238_240 - flow_240_241 = 0
FlowConservation_241: flow_239_241 + flow_240_241 - flow_241_242
 - flow_241_243 = 0
FlowConservation_242: flow_241_242 - flow_242_244 = 0
FlowConservation_243: flow_241_243 - flow_243_244 = 0
FlowConservation_244: flow_242_244 + flow_243_244 - flow_244_245
 - flow_244_246 = 0
FlowConservation_245: flow_244_245 - flow_245_249 = 0
FlowConservation_246: flow_244_246 - flow_246_247 - flow_246_248 = 0
FlowConservation_247: flow_246_247 - flow_247_249 = 0
FlowConservation_248: flow_246_248 - flow_248_249 = 0
FlowConservation_249: flow_245_249 + flow_247_249 + flow_248_249
 - flow_249_250 - flow_249_251 = 0
FlowConservation_25: flow_19_25 + flow_20_25 + flow_24_25 - flow_25_26
 - flow_25_27 = 0
FlowConservation_250: flow_249_250 - flow_250_252 = 0
FlowConservation_251: flow_249_251 - flow_251_252 = 0
FlowConservation_252: flow_250_252 + flow_251_252 - flow_252_253
 - flow_252_254 = 0
FlowConservation_253: flow_252_253 - flow_253_257 = 0
FlowConservation_254: flow_252_254 - flow_254_255 - flow_254_256 = 0
FlowConservation_255: flow_254_255 - flow_255_257 = 0
FlowConservation_256: flow_254_256 - flow_256_257 = 0
FlowConservation_257: flow_253_257 + flow_255_257 + flow_256_257
 - flow_257_258 - flow_257_259 = 0
FlowConservation_258: flow_257_258 - flow_258_260 = 0
FlowConservation_259: flow_257_259 - flow_259_260 = 0
FlowConservation_26: flow_25_26 - flow_26_32 = 0
FlowConservation_260: flow_258_260 + flow_259_260 - flow_260_261
 - flow_260_262 = 0
FlowConservation_261: flow_260_261 - flow_261_263 = 0
FlowConservation_262: flow_260_262 - flow_262_263 = 0
FlowConservation_263: flow_261_263 + flow_262_263 - flow_263_264
 - flow_263_265 = 0
FlowConservation_264: flow_263_264 - flow_264_266 = 0
FlowConservation_265: flow_263_265 - flow_265_266 = 0
FlowConservation_266: flow_264_266 + flow_265_266 - flow_266_267
 - flow_266_268 = 0
FlowConservation_267: flow_266_267 - flow_267_269 = 0
FlowConservation_268: flow_266_268 - flow_268_269 = 0
FlowConservation_269: flow_267_269 + flow_268_269 - flow_269_270
 - flow_269_271 = 0
FlowConservation_27: flow_25_27 - flow_27_28 - flow_27_29 = 0
FlowConservation_270: flow_269_270 - flow_270_272 = 0
FlowConservation_271: flow_269_271 - flow_271_272 = 0
FlowConservation_272: flow_270_272 + flow_271_272 - flow_272_273
 - flow_272_274 = 0
FlowConservation_273: flow_272_273 - flow_273_275 = 0
FlowConservation_274: flow_272_274 - flow_274_275 = 0
FlowConservation_275: flow_273_275 + flow_274_275 - flow_275_276
 - flow_275_277 = 0
FlowConservation_276: flow_275_276 - flow_276_278 = 0
FlowConservation_277: flow_275_277 - flow_277_278 = 0
FlowConservation_278: flow_276_278 + flow_277_278 - flow_278_279
 - flow_278_280 = 0
FlowConservation_279: flow_278_279 - flow_279_286 = 0
FlowConservation_28: flow_27_28 - flow_28_30 - flow_28_31 = 0
FlowConservation_280: flow_278_280 - flow_280_281 - flow_280_282 = 0
FlowConservation_281: flow_280_281 - flow_281_285 = 0
FlowConservation_282: flow_280_282 - flow_282_283 - flow_282_284 = 0
FlowConservation_283: flow_282_283 - flow_283_285 = 0
FlowConservation_284: flow_282_284 - flow_284_285 = 0
FlowConservation_285: flow_281_285 + flow_283_285 + flow_284_285
 - flow_285_286 = 0
FlowConservation_286: flow_279_286 + flow_285_286 - flow_286_287
 - flow_286_288 = 0
FlowConservation_287: flow_286_287 - flow_287_291 = 0
FlowConservation_288: flow_286_288 - flow_288_289 - flow_288_290 = 0
FlowConservation_289: flow_288_289 - flow_289_291 = 0
FlowConservation_29: flow_27_29 - flow_29_32 = 0
FlowConservation_290: flow_288_290 - flow_290_291 = 0
FlowConservation_291: flow_287_291 + flow_289_291 + flow_290_291
 - flow_291_292 - flow_291_293 = 0
FlowConservation_292: flow_291_292 - flow_292_294 = 0
FlowConservation_293: flow_291_293 - flow_293_294 = 0
FlowConservation_294: flow_292_294 + flow_293_294 - flow_294_295
 - flow_294_296 = 0
FlowConservation_295: flow_294_295 - flow_295_297 = 0
FlowConservation_296: flow_294_296 - flow_296_297 = 0
FlowConservation_297: flow_295_297 + flow_296_297 - flow_297_298
 - flow_297_299 = 0
FlowConservation_298: flow_297_298 - flow_298_300 = 0
FlowConservation_299: flow_297_299 - flow_299_300 = 0
FlowConservation_3: flow_1_3 + flow_2_3 - flow_3_4 - flow_3_5 = 0
FlowConservation_30: flow_28_30 - flow_30_33 = 0
FlowConservation_300: flow_298_300 + flow_299_300 - flow_300_301
 - flow_300_302 = 0
FlowConservation_301: flow_300_301 - flow_301_303 = 0
FlowConservation_302: flow_300_302 - flow_302_303 = 0
FlowConservation_303: flow_301_303 + flow_302_303 - flow_303_304
 - flow_303_305 = 0
FlowConservation_304: flow_303_304 - flow_304_308 = 0
FlowConservation_305: flow_303_305 - flow_305_306 - flow_305_307 = 0
FlowConservation_306: flow_305_306 - flow_306_308 = 0
FlowConservation_307: flow_305_307 - flow_307_308 = 0
FlowConservation_308: flow_304_308 + flow_306_308 + flow_307_308
 - flow_308_309 - flow_308_310 = 0
FlowConservation_309: flow_308_309 - flow_309_311 - flow_309_312 = 0
FlowConservation_31: flow_28_31 - flow_31_33 = 0
FlowConservation_310: flow_308_310 - flow_310_312 = 0
FlowConservation_311: flow_309_311 - flow_311_313 = 0
FlowConservation_312: flow_309_312 + flow_310_312 - flow_312_313 = 0
FlowConservation_313: flow_311_313 + flow_312_313 - flow_313_314
 - flow_313_315 = 0
FlowConservation_314: flow_313_314 - flow_314_316 = 0
FlowConservation_315: flow_313_315 - flow_315_316 = 0
FlowConservation_316: flow_314_316 + flow_315_316 - flow_316_317
 - flow_316_318 = 0
FlowConservation_317: flow_316_317 - flow_317_321 = 0
FlowConservation_318: flow_316_318 - flow_318_319 - flow_318_320 = 0
FlowConservation_319: flow_318_319 - flow_319_321 = 0
FlowConservation_32: flow_26_32 + flow_29_32 - flow_32_42 = 0
FlowConservation_320: flow_318_320 - flow_320_321 = 0
FlowConservation_321: flow_317_321 + flow_319_321 + flow_320_321
 - flow_321_322 - flow_321_323 = 0
FlowConservation_322: flow_321_322 - flow_322_324 = 0
FlowConservation_323: flow_321_323 - flow_323_324 = 0
FlowConservation_324: flow_322_324 + flow_323_324 - flow_324_325
 - flow_324_326 = 0
FlowConservation_325: flow_324_325 - flow_325_327 = 0
FlowConservation_326: flow_324_326 - flow_326_327 = 0
FlowConservation_327: flow_325_327 + flow_326_327 - flow_327_328
 - flow_327_329 = 0
FlowConservation_328: flow_327_328 - flow_328_330 = 0
FlowConservation_329: flow_327_329 - flow_329_330 = 0
FlowConservation_33: flow_30_33 + flow_31_33 - flow_33_34 - flow_33_35 = 0
FlowConservation_330: flow_328_330 + flow_329_330 - flow_330_331
 - flow_330_332 = 0
FlowConservation_331: flow_330_331 - flow_331_333 = 0
FlowConservation_332: flow_330_332 - flow_332_333 = 0
FlowConservation_333: flow_331_333 + flow_332_333 - flow_333_334
 - flow_333_335 = 0
FlowConservation_334: flow_333_334 - flow_334_339 = 0
FlowConservation_335: flow_333_335 - flow_335_336 - flow_335_337 = 0
FlowConservation_336: flow_335_336 - flow_336_338 = 0
FlowConservation_337: flow_335_337 - flow_337_338 = 0
FlowConservation_338: flow_336_338 + flow_337_338 - flow_338_339 = 0
FlowConservation_339: flow_334_339 + flow_338_339 - flow_339_340
 - flow_339_341 = 0
FlowConservation_34: flow_33_34 - flow_34_36 = 0
FlowConservation_340: flow_339_340 - flow_340_342 = 0
FlowConservation_341: flow_339_341 - flow_341_342 = 0
FlowConservation_342: flow_340_342 + flow_341_342 - flow_342_343
 - flow_342_344 = 0
FlowConservation_343: flow_342_343 - flow_343_345 = 0
FlowConservation_344: flow_342_344 - flow_344_345 = 0
FlowConservation_345: flow_343_345 + flow_344_345 - flow_345_346
 - flow_345_347 = 0
FlowConservation_346: flow_345_346 - flow_346_348 = 0
FlowConservation_347: flow_345_347 - flow_347_348 = 0
FlowConservation_348: flow_346_348 + flow_347_348 - flow_348_349
 - flow_348_350 = 0
FlowConservation_349: flow_348_349 - flow_349_351 - flow_349_352 = 0
FlowConservation_35: flow_33_35 - flow_35_36 = 0
FlowConservation_350: flow_348_350 - flow_350_352 = 0
FlowConservation_351: flow_349_351 - flow_351_356 = 0
FlowConservation_352: flow_349_352 + flow_350_352 - flow_352_353
 - flow_352_354 = 0
FlowConservation_353: flow_352_353 - flow_353_355 = 0
FlowConservation_354: flow_352_354 - flow_354_355 = 0
FlowConservation_355: flow_353_355 + flow_354_355 - flow_355_356 = 0
FlowConservation_356: flow_351_356 + flow_355_356 - flow_356_357
 - flow_356_358 = 0
FlowConservation_357: flow_356_357 - flow_357_359 = 0
FlowConservation_358: flow_356_358 - flow_358_359 = 0
FlowConservation_359: flow_357_359 + flow_358_359 - flow_359_360
 - flow_359_361 = 0
FlowConservation_36: flow_34_36 + flow_35_36 - flow_36_37 - flow_36_38 = 0
FlowConservation_360: flow_359_360 - flow_360_362 = 0
FlowConservation_361: flow_359_361 - flow_361_362 = 0
FlowConservation_362: flow_360_362 + flow_361_362 - flow_362_363
 - flow_362_364 = 0
FlowConservation_363: flow_362_363 - flow_363_365 = 0
FlowConservation_364: flow_362_364 - flow_364_365 = 0
FlowConservation_365: flow_363_365 + flow_364_365 - flow_365_366
 - flow_365_367 = 0
FlowConservation_366: flow_365_366 - flow_366_368 = 0
FlowConservation_367: flow_365_367 - flow_367_368 - flow_367_369 = 0
FlowConservation_368: flow_366_368 + flow_367_368 - flow_368_370 = 0
FlowConservation_369: flow_367_369 - flow_369_370 = 0
FlowConservation_37: flow_36_37 - flow_37_39 = 0
FlowConservation_370: flow_368_370 + flow_369_370 - flow_370_371
 - flow_370_372 = 0
FlowConservation_371: flow_370_371 - flow_371_373 = 0
FlowConservation_372: flow_370_372 - flow_372_373 = 0
FlowConservation_373: flow_371_373 + flow_372_373 - flow_373_374
 - flow_373_375 = 0
FlowConservation_374: flow_373_374 - flow_374_376 = 0
FlowConservation_375: flow_373_375 - flow_375_376 = 0
FlowConservation_376: flow_374_376 + flow_375_376 - flow_376_377
 - flow_376_378 = 0
FlowConservation_377: flow_376_377 - flow_377_379 = 0
FlowConservation_378: flow_376_378 - flow_378_379 = 0
FlowConservation_379: flow_377_379 + flow_378_379 - flow_379_380
 - flow_379_381 = 0
FlowConservation_38: flow_36_38 - flow_38_39 = 0
FlowConservation_380: flow_379_380 - flow_380_382 = 0
FlowConservation_381: flow_379_381 - flow_381_382 = 0
FlowConservation_382: flow_380_382 + flow_381_382 - flow_382_383
 - flow_382_384 = 0
FlowConservation_383: flow_382_383 - flow_383_385 = 0
FlowConservation_384: flow_382_384 - flow_384_385 = 0
FlowConservation_385: flow_383_385 + flow_384_385 - flow_385_386
 - flow_385_387 = 0
FlowConservation_386: flow_385_386 - flow_386_390 = 0
FlowConservation_387: flow_385_387 - flow_387_388 - flow_387_389 = 0
FlowConservation_388: flow_387_388 - flow_388_390 = 0
FlowConservation_389: flow_387_389 - flow_389_390 = 0
FlowConservation_39: flow_37_39 + flow_38_39 - flow_39_40 - flow_39_41 = 0
FlowConservation_390: flow_386_390 + flow_388_390 + flow_389_390
 - flow_390_391 - flow_390_392 = 0
FlowConservation_391: flow_390_391 - flow_391_393 = 0
FlowConservation_392: flow_390_392 - flow_392_393 = 0
FlowConservation_393: flow_391_393 + flow_392_393 - flow_393_394
 - flow_393_395 = 0
FlowConservation_394: flow_393_394 - flow_394_396 = 0
FlowConservation_395: flow_393_395 - flow_395_396 = 0
FlowConservation_396: flow_394_396 + flow_395_396 - flow_396_397
 - flow_396_398 = 0
FlowConservation_397: flow_396_397 - flow_397_399 = 0
FlowConservation_398: flow_396_398 - flow_398_399 = 0
FlowConservation_399: flow_397_399 + flow_398_399 - flow_399_400
 - flow_399_401 = 0
FlowConservation_4: flow_3_4 - flow_4_9 = 0
FlowConservation_40: flow_39_40 - flow_40_42 = 0
FlowConservation_400: flow_399_400 - flow_400_404 = 0
FlowConservation_401: flow_399_401 - flow_401_402 - flow_401_403 = 0
FlowConservation_402: flow_401_402 - flow_402_404 = 0
FlowConservation_403: flow_401_403 - flow_403_404 = 0
FlowConservation_404: flow_400_404 + flow_402_404 + flow_403_404
 - flow_404_405 - flow_404_406 = 0
FlowConservation_405: flow_404_405 - flow_405_407 = 0
FlowConservation_406: flow_404_406 - flow_406_407 = 0
FlowConservation_407: flow_405_407 + flow_406_407 - flow_407_408
 - flow_407_409 = 0
FlowConservation_408: flow_407_408 - flow_408_410 = 0
FlowConservation_409: flow_407_409 - flow_409_410 = 0
FlowConservation_41: flow_39_41 - flow_41_43 - flow_41_44 = 0
FlowConservation_410: flow_408_410 + flow_409_410 - flow_410_411
 - flow_410_412 = 0
FlowConservation_411: flow_410_411 - flow_411_413 = 0
FlowConservation_412: flow_410_412 - flow_412_413 = 0
FlowConservation_413: flow_411_413 + flow_412_413 - flow_413_414
 - flow_413_415 = 0
FlowConservation_414: flow_413_414 - flow_414_422 = 0
FlowConservation_415: flow_413_415 - flow_415_416 - flow_415_417 = 0
FlowConservation_416: flow_415_416 - flow_416_418 = 0
FlowConservation_417: flow_415_417 - flow_417_418 = 0
FlowConservation_418: flow_416_418 + flow_417_418 - flow_418_419
 - flow_418_420 = 0
FlowConservation_419: flow_418_419 - flow_419_421 = 0
FlowConservation_42: flow_32_42 + flow_40_42 - flow_42_45 - flow_42_46 = 0
FlowConservation_420: flow_418_420 - flow_420_421 = 0
FlowConservation_421: flow_419_421 + flow_420_421 - flow_421_422 = 0
FlowConservation_422: flow_414_422 + flow_421_422 - flow_422_423
 - flow_422_424 = 0
FlowConservation_423: flow_422_423 - flow_423_425 = 0
FlowConservation_424: flow_422_424 - flow_424_425 = 0
FlowConservation_425: flow_423_425 + flow_424_425 - flow_425_426
 - flow_425_427 = 0
FlowConservation_426: flow_425_426 - flow_426_428 = 0
FlowConservation_427: flow_425_427 - flow_427_428 = 0
FlowConservation_428: flow_426_428 + flow_427_428 - flow_428_429
 - flow_428_430 = 0
FlowConservation_429: flow_428_429 - flow_429_431 = 0
FlowConservation_43: flow_41_43 - flow_43_47 = 0
FlowConservation_430: flow_428_430 - flow_430_431 = 0
FlowConservation_431: flow_429_431 + flow_430_431 - flow_431_432
 - flow_431_433 = 0
FlowConservation_432: flow_431_432 - flow_432_434 = 0
FlowConservation_433: flow_431_433 - flow_433_434 = 0
FlowConservation_434: flow_432_434 + flow_433_434 - flow_434_435
 - flow_434_436 = 0
FlowConservation_435: flow_434_435 - flow_435_437 = 0
FlowConservation_436: flow_434_436 - flow_436_437 = 0
FlowConservation_437: flow_435_437 + flow_436_437 - flow_437_438
 - flow_437_439 = 0
FlowConservation_438: flow_437_438 - flow_438_440 = 0
FlowConservation_439: flow_437_439 - flow_439_440 = 0
FlowConservation_44: flow_41_44 - flow_44_47 = 0
FlowConservation_440: flow_438_440 + flow_439_440 - flow_440_441
 - flow_440_442 = 0
FlowConservation_441: flow_440_441 - flow_441_443 = 0
FlowConservation_442: flow_440_442 - flow_442_443 = 0
FlowConservation_443: flow_441_443 + flow_442_443 - flow_443_444
 - flow_443_445 = 0
FlowConservation_444: flow_443_444 - flow_444_446 = 0
FlowConservation_445: flow_443_445 - flow_445_446 = 0
FlowConservation_446: flow_444_446 + flow_445_446 - flow_446_447
 - flow_446_448 = 0
FlowConservation_447: flow_446_447 - flow_447_449 = 0
FlowConservation_448: flow_446_448 - flow_448_449 = 0
FlowConservation_449: flow_447_449 + flow_448_449 - flow_449_450
 - flow_449_451 = 0
FlowConservation_45: flow_42_45 - flow_45_68 = 0
FlowConservation_450: flow_449_450 - flow_450_452 = 0
FlowConservation_451: flow_449_451 - flow_451_452 = 0
FlowConservation_452: flow_450_452 + flow_451_452 = 0
FlowConservation_46: flow_42_46 - flow_46_50 = 0
FlowConservation_47: flow_43_47 + flow_44_47 - flow_47_48 - flow_47_49 = 0
FlowConservation_48: flow_47_48 - flow_48_51 = 0
FlowConservation_49: flow_47_49 - flow_49_50 = 0
FlowConservation_5: flow_3_5 - flow_5_6 - flow_5_7 = 0
FlowConservation_50: flow_46_50 + flow_49_50 - flow_50_51 = 0
FlowConservation_51: flow_48_51 + flow_50_51 - flow_51_52 - flow_51_53 = 0
FlowConservation_52: flow_51_52 - flow_52_54 = 0
FlowConservation_53: flow_51_53 - flow_53_54 = 0
FlowConservation_54: flow_52_54 + flow_53_54 - flow_54_55 - flow_54_56 = 0
FlowConservation_55: flow_54_55 - flow_55_57 - flow_55_58 = 0
FlowConservation_56: flow_54_56 - flow_56_58 = 0
FlowConservation_57: flow_55_57 - flow_57_61 = 0
FlowConservation_58: flow_55_58 + flow_56_58 - flow_58_59 - flow_58_60 = 0
FlowConservation_59: flow_58_59 - flow_59_62 = 0
FlowConservation_6: flow_5_6 - flow_6_8 = 0
FlowConservation_60: flow_58_60 - flow_60_61 = 0
FlowConservation_61: flow_57_61 + flow_60_61 - flow_61_62 = 0
FlowConservation_62: flow_59_62 + flow_61_62 - flow_62_63 - flow_62_64 = 0
FlowConservation_63: flow_62_63 - flow_63_67 = 0
FlowConservation_64: flow_62_64 - flow_64_65 - flow_64_66 = 0
FlowConservation_65: flow_64_65 - flow_65_67 = 0
FlowConservation_66: flow_64_66 - flow_66_67 = 0
FlowConservation_67: flow_63_67 + flow_65_67 + flow_66_67 - flow_67_68 = 0
FlowConservation_68: flow_45_68 + flow_67_68 - flow_68_69 - flow_68_70 = 0
FlowConservation_69: flow_68_69 - flow_69_74 = 0
FlowConservation_7: flow_5_7 - flow_7_8 = 0
FlowConservation_70: flow_68_70 - flow_70_71 - flow_70_72 - flow_70_73 = 0
FlowConservation_71: flow_70_71 - flow_71_82 = 0
FlowConservation_72: flow_70_72 - flow_72_81 = 0
FlowConservation_73: flow_70_73 - flow_73_74 = 0
FlowConservation_74: flow_69_74 + flow_73_74 - flow_74_75 - flow_74_76 = 0
FlowConservation_75: flow_74_75 - flow_75_77 = 0
FlowConservation_76: flow_74_76 - flow_76_77 = 0
FlowConservation_77: flow_75_77 + flow_76_77 - flow_77_78 - flow_77_79 = 0
FlowConservation_78: flow_77_78 - flow_78_80 = 0
FlowConservation_79: flow_77_79 - flow_79_80 = 0
FlowConservation_8: flow_6_8 + flow_7_8 - flow_8_9 = 0
FlowConservation_80: flow_78_80 + flow_79_80 - flow_80_81 = 0
FlowConservation_81: flow_72_81 + flow_80_81 - flow_81_82 = 0
FlowConservation_82: flow_71_82 + flow_81_82 - flow_82_83 - flow_82_84 = 0
FlowConservation_83: flow_82_83 - flow_83_94 = 0
FlowConservation_84: flow_82_84 - flow_84_85 - flow_84_86 = 0
FlowConservation_85: flow_84_85 - flow_85_90 = 0
FlowConservation_86: flow_84_86 - flow_86_87 - flow_86_88 = 0
FlowConservation_87: flow_86_87 - flow_87_89 = 0
FlowConservation_88: flow_86_88 - flow_88_89 = 0
FlowConservation_89: flow_87_89 + flow_88_89 - flow_89_90 = 0
FlowConservation_9: flow_4_9 + flow_8_9 - flow_9_10 - flow_9_11 = 0
FlowConservation_90: flow_85_90 + flow_89_90 - flow_90_91 - flow_90_92 = 0
FlowConservation_91: flow_90_91 - flow_91_93 = 0
FlowConservation_92: flow_90_92 - flow_92_93 = 0
FlowConservation_93: flow_91_93 + flow_92_93 - flow_93_94 = 0
FlowConservation_94: flow_83_94 + flow_93_94 - flow_94_95 - flow_94_96 = 0
FlowConservation_95: flow_94_95 - flow_95_110 = 0
FlowConservation_96: flow_94_96 - flow_96_97 - flow_96_98 = 0
FlowConservation_97: flow_96_97 - flow_97_101 = 0
FlowConservation_98: flow_96_98 - flow_98_100 - flow_98_99 = 0
FlowConservation_99: flow_98_99 - flow_99_101 = 0
Bounds
 __dummy = 0
End
